c instancia_14  vars=15  clausulas=25  k=2
p cnf 15 25
6 -9 0
-13 5 0
-9 -5 0
-15 7 0
7 -9 0
4 14 0
14 -6 0
13 -15 0
8 6 0
-8 -10 0
-15 12 0
-9 14 0
15 -4 0
-10 -3 0
-12 2 0
-2 10 0
5 -12 0
4 -11 0
-13 -5 0
5 -3 0
4 -5 0
5 14 0
-11 15 0
-5 12 0
-6 1 0
